p cnf 200 1110
-101 73 0
-101 99 0
-101 33 0
-101 -11 0
-101 -18 0
-101 94 0
-101 53 0
-101 47 0
-101 -42 0
-101 -76 0
101 -73 -99 -33 11 18 -94 -53 -47 42 76 0
-102 -68 0
-102 46 0
-102 -67 0
-102 -50 0
-102 -78 0
-102 41 0
-102 -19 0
-102 -66 0
-102 -56 0
-102 16 0
102 68 -46 67 50 78 -41 19 66 56 -16 0
-103 -59 0
-103 -26 0
-103 -42 0
-103 4 0
-103 -14 0
-103 -61 0
-103 37 0
-103 15 0
-103 28 0
-103 -76 0
103 59 26 42 -4 14 61 -37 -15 -28 76 0
-104 -74 0
-104 78 0
-104 -23 0
-104 -5 0
-104 80 0
-104 -34 0
-104 -64 0
-104 8 0
-104 14 0
-104 39 0
104 74 -78 23 5 -80 34 64 -8 -14 -39 0
-105 -30 0
-105 16 0
-105 -46 0
-105 -40 0
-105 -53 0
-105 98 0
-105 -83 0
-105 60 0
-105 -92 0
-105 82 0
105 30 -16 46 40 53 -98 83 -60 92 -82 0
-106 55 0
-106 57 0
-106 87 0
-106 -31 0
-106 -69 0
-106 -32 0
-106 -77 0
-106 -35 0
-106 -75 0
-106 47 0
106 -55 -57 -87 31 69 32 77 35 75 -47 0
-107 71 0
-107 -72 0
-107 -25 0
-107 54 0
-107 50 0
-107 -35 0
-107 -68 0
-107 -22 0
-107 -1 0
-107 -96 0
107 -71 72 25 -54 -50 35 68 22 1 96 0
-108 -15 0
-108 -80 0
-108 96 0
-108 48 0
-108 -65 0
-108 18 0
-108 57 0
-108 -25 0
-108 27 0
-108 -56 0
108 15 80 -96 -48 65 -18 -57 25 -27 56 0
-109 10 0
-109 13 0
-109 79 0
-109 -8 0
-109 17 0
-109 -3 0
-109 24 0
-109 -30 0
-109 70 0
-109 -60 0
109 -10 -13 -79 8 -17 3 -24 30 -70 60 0
-110 58 0
-110 -100 0
-110 -80 0
-110 -62 0
-110 47 0
-110 -78 0
-110 68 0
-110 -72 0
-110 -27 0
-110 35 0
110 -58 100 80 62 -47 78 -68 72 27 -35 0
101 102 103 104 105 106 107 108 109 110 0
-111 -25 0
-111 -16 0
-111 -38 0
-111 -37 0
-111 -95 0
-111 -46 0
-111 -64 0
-111 -43 0
-111 -67 0
-111 19 0
111 25 16 38 37 95 46 64 43 67 -19 0
-112 -35 0
-112 22 0
-112 82 0
-112 92 0
-112 60 0
-112 61 0
-112 -6 0
-112 88 0
-112 79 0
-112 -34 0
112 35 -22 -82 -92 -60 -61 6 -88 -79 34 0
-113 12 0
-113 -36 0
-113 -42 0
-113 38 0
-113 9 0
-113 -48 0
-113 52 0
-113 86 0
-113 -88 0
-113 -83 0
113 -12 36 42 -38 -9 48 -52 -86 88 83 0
-114 -76 0
-114 23 0
-114 42 0
-114 38 0
-114 -75 0
-114 54 0
-114 72 0
-114 73 0
-114 84 0
-114 -64 0
114 76 -23 -42 -38 75 -54 -72 -73 -84 64 0
-115 84 0
-115 -48 0
-115 75 0
-115 3 0
-115 23 0
-115 19 0
-115 17 0
-115 2 0
-115 -88 0
-115 -50 0
115 -84 48 -75 -3 -23 -19 -17 -2 88 50 0
-116 -41 0
-116 -53 0
-116 19 0
-116 -25 0
-116 26 0
-116 -85 0
-116 75 0
-116 8 0
-116 -62 0
-116 -64 0
116 41 53 -19 25 -26 85 -75 -8 62 64 0
-117 60 0
-117 88 0
-117 -73 0
-117 -91 0
-117 13 0
-117 96 0
-117 -7 0
-117 -21 0
-117 87 0
-117 76 0
117 -60 -88 73 91 -13 -96 7 21 -87 -76 0
-118 69 0
-118 -30 0
-118 22 0
-118 -36 0
-118 35 0
-118 1 0
-118 23 0
-118 -74 0
-118 -58 0
-118 -33 0
118 -69 30 -22 36 -35 -1 -23 74 58 33 0
-119 44 0
-119 -79 0
-119 -76 0
-119 48 0
-119 -45 0
-119 -93 0
-119 -99 0
-119 -94 0
-119 70 0
-119 -68 0
119 -44 79 76 -48 45 93 99 94 -70 68 0
-120 -49 0
-120 91 0
-120 99 0
-120 16 0
-120 -34 0
-120 60 0
-120 -46 0
-120 20 0
-120 -51 0
-120 -42 0
120 49 -91 -99 -16 34 -60 46 -20 51 42 0
111 112 113 114 115 116 117 118 119 120 0
-121 33 0
-121 -100 0
-121 34 0
-121 -40 0
-121 19 0
-121 -29 0
-121 -98 0
-121 -80 0
-121 -7 0
-121 18 0
121 -33 100 -34 40 -19 29 98 80 7 -18 0
-122 -76 0
-122 52 0
-122 -77 0
-122 79 0
-122 62 0
-122 -15 0
-122 88 0
-122 -48 0
-122 26 0
-122 84 0
122 76 -52 77 -79 -62 15 -88 48 -26 -84 0
-123 92 0
-123 44 0
-123 -3 0
-123 -35 0
-123 -29 0
-123 -5 0
-123 16 0
-123 -86 0
-123 -18 0
-123 97 0
123 -92 -44 3 35 29 5 -16 86 18 -97 0
-124 -91 0
-124 100 0
-124 -98 0
-124 -82 0
-124 -47 0
-124 -36 0
-124 -90 0
-124 19 0
-124 -97 0
-124 3 0
124 91 -100 98 82 47 36 90 -19 97 -3 0
-125 -80 0
-125 36 0
-125 -42 0
-125 -45 0
-125 65 0
-125 -1 0
-125 91 0
-125 -23 0
-125 3 0
-125 51 0
125 80 -36 42 45 -65 1 -91 23 -3 -51 0
-126 -79 0
-126 -80 0
-126 -40 0
-126 -17 0
-126 -93 0
-126 7 0
-126 69 0
-126 -56 0
-126 -82 0
-126 -89 0
126 79 80 40 17 93 -7 -69 56 82 89 0
-127 35 0
-127 -7 0
-127 42 0
-127 69 0
-127 -53 0
-127 -19 0
-127 40 0
-127 30 0
-127 70 0
-127 11 0
127 -35 7 -42 -69 53 19 -40 -30 -70 -11 0
-128 77 0
-128 -39 0
-128 -75 0
-128 17 0
-128 20 0
-128 -63 0
-128 -27 0
-128 87 0
-128 1 0
-128 44 0
128 -77 39 75 -17 -20 63 27 -87 -1 -44 0
-129 -69 0
-129 -10 0
-129 93 0
-129 72 0
-129 2 0
-129 30 0
-129 -26 0
-129 -23 0
-129 -35 0
-129 -91 0
129 69 10 -93 -72 -2 -30 26 23 35 91 0
-130 9 0
-130 74 0
-130 -6 0
-130 -16 0
-130 -34 0
-130 -18 0
-130 -41 0
-130 12 0
-130 53 0
-130 85 0
130 -9 -74 6 16 34 18 41 -12 -53 -85 0
121 122 123 124 125 126 127 128 129 130 0
-131 50 0
-131 -41 0
-131 -5 0
-131 95 0
-131 88 0
-131 68 0
-131 -25 0
-131 83 0
-131 -69 0
-131 11 0
131 -50 41 5 -95 -88 -68 25 -83 69 -11 0
-132 -70 0
-132 -11 0
-132 83 0
-132 47 0
-132 10 0
-132 13 0
-132 87 0
-132 -74 0
-132 71 0
-132 58 0
132 70 11 -83 -47 -10 -13 -87 74 -71 -58 0
-133 -60 0
-133 71 0
-133 -81 0
-133 90 0
-133 -18 0
-133 52 0
-133 -56 0
-133 83 0
-133 19 0
-133 38 0
133 60 -71 81 -90 18 -52 56 -83 -19 -38 0
-134 78 0
-134 -63 0
-134 -81 0
-134 4 0
-134 14 0
-134 29 0
-134 -38 0
-134 71 0
-134 -50 0
-134 -35 0
134 -78 63 81 -4 -14 -29 38 -71 50 35 0
-135 -57 0
-135 -43 0
-135 81 0
-135 18 0
-135 -71 0
-135 3 0
-135 97 0
-135 24 0
-135 59 0
-135 -93 0
135 57 43 -81 -18 71 -3 -97 -24 -59 93 0
-136 -98 0
-136 -56 0
-136 16 0
-136 -100 0
-136 -29 0
-136 49 0
-136 -55 0
-136 75 0
-136 -46 0
-136 43 0
136 98 56 -16 100 29 -49 55 -75 46 -43 0
-137 -22 0
-137 -68 0
-137 -41 0
-137 72 0
-137 -70 0
-137 -10 0
-137 -56 0
-137 -96 0
-137 -17 0
-137 -25 0
137 22 68 41 -72 70 10 56 96 17 25 0
-138 -54 0
-138 -4 0
-138 12 0
-138 37 0
-138 -17 0
-138 58 0
-138 61 0
-138 63 0
-138 -29 0
-138 -19 0
138 54 4 -12 -37 17 -58 -61 -63 29 19 0
-139 -29 0
-139 -86 0
-139 -98 0
-139 -56 0
-139 87 0
-139 47 0
-139 37 0
-139 -81 0
-139 55 0
-139 61 0
139 29 86 98 56 -87 -47 -37 81 -55 -61 0
-140 43 0
-140 -24 0
-140 11 0
-140 -21 0
-140 56 0
-140 58 0
-140 -57 0
-140 99 0
-140 -1 0
-140 28 0
140 -43 24 -11 21 -56 -58 57 -99 1 -28 0
131 132 133 134 135 136 137 138 139 140 0
-141 94 0
-141 -14 0
-141 -6 0
-141 8 0
-141 76 0
-141 -56 0
-141 59 0
-141 9 0
-141 16 0
-141 -29 0
141 -94 14 6 -8 -76 56 -59 -9 -16 29 0
-142 -14 0
-142 -53 0
-142 91 0
-142 58 0
-142 -20 0
-142 13 0
-142 -2 0
-142 -12 0
-142 81 0
-142 -7 0
142 14 53 -91 -58 20 -13 2 12 -81 7 0
-143 55 0
-143 -97 0
-143 30 0
-143 -98 0
-143 52 0
-143 94 0
-143 24 0
-143 93 0
-143 78 0
-143 -63 0
143 -55 97 -30 98 -52 -94 -24 -93 -78 63 0
-144 83 0
-144 -24 0
-144 -2 0
-144 60 0
-144 63 0
-144 57 0
-144 7 0
-144 37 0
-144 91 0
-144 -8 0
144 -83 24 2 -60 -63 -57 -7 -37 -91 8 0
-145 93 0
-145 -3 0
-145 -40 0
-145 86 0
-145 31 0
-145 -13 0
-145 1 0
-145 9 0
-145 34 0
-145 -67 0
145 -93 3 40 -86 -31 13 -1 -9 -34 67 0
-146 -98 0
-146 26 0
-146 -71 0
-146 -22 0
-146 -36 0
-146 -1 0
-146 -12 0
-146 77 0
-146 6 0
-146 -17 0
146 98 -26 71 22 36 1 12 -77 -6 17 0
-147 91 0
-147 -33 0
-147 -27 0
-147 -69 0
-147 -81 0
-147 61 0
-147 25 0
-147 19 0
-147 -32 0
-147 86 0
147 -91 33 27 69 81 -61 -25 -19 32 -86 0
-148 -66 0
-148 39 0
-148 49 0
-148 -44 0
-148 98 0
-148 13 0
-148 93 0
-148 86 0
-148 -67 0
-148 10 0
148 66 -39 -49 44 -98 -13 -93 -86 67 -10 0
-149 -48 0
-149 -94 0
-149 -23 0
-149 71 0
-149 9 0
-149 -62 0
-149 -5 0
-149 58 0
-149 -51 0
-149 -84 0
149 48 94 23 -71 -9 62 5 -58 51 84 0
-150 60 0
-150 78 0
-150 -26 0
-150 94 0
-150 -90 0
-150 -6 0
-150 -18 0
-150 -58 0
-150 -74 0
-150 42 0
150 -60 -78 26 -94 90 6 18 58 74 -42 0
141 142 143 144 145 146 147 148 149 150 0
-151 54 0
-151 -71 0
-151 -62 0
-151 -22 0
-151 -67 0
-151 76 0
-151 -35 0
-151 100 0
-151 -93 0
-151 58 0
151 -54 71 62 22 67 -76 35 -100 93 -58 0
-152 11 0
-152 84 0
-152 9 0
-152 -56 0
-152 -64 0
-152 -95 0
-152 62 0
-152 35 0
-152 -78 0
-152 58 0
152 -11 -84 -9 56 64 95 -62 -35 78 -58 0
-153 -88 0
-153 34 0
-153 6 0
-153 -37 0
-153 42 0
-153 86 0
-153 16 0
-153 -23 0
-153 80 0
-153 -30 0
153 88 -34 -6 37 -42 -86 -16 23 -80 30 0
-154 72 0
-154 63 0
-154 25 0
-154 -68 0
-154 16 0
-154 -32 0
-154 -97 0
-154 89 0
-154 -4 0
-154 1 0
154 -72 -63 -25 68 -16 32 97 -89 4 -1 0
-155 -11 0
-155 53 0
-155 -76 0
-155 -61 0
-155 -35 0
-155 48 0
-155 -94 0
-155 -36 0
-155 -13 0
-155 -89 0
155 11 -53 76 61 35 -48 94 36 13 89 0
-156 24 0
-156 75 0
-156 28 0
-156 15 0
-156 1 0
-156 -27 0
-156 91 0
-156 10 0
-156 -5 0
-156 -14 0
156 -24 -75 -28 -15 -1 27 -91 -10 5 14 0
-157 87 0
-157 -82 0
-157 32 0
-157 -20 0
-157 86 0
-157 -44 0
-157 34 0
-157 11 0
-157 -33 0
-157 -42 0
157 -87 82 -32 20 -86 44 -34 -11 33 42 0
-158 66 0
-158 27 0
-158 -75 0
-158 -14 0
-158 -26 0
-158 -79 0
-158 71 0
-158 96 0
-158 83 0
-158 65 0
158 -66 -27 75 14 26 79 -71 -96 -83 -65 0
-159 1 0
-159 -51 0
-159 -43 0
-159 -69 0
-159 -21 0
-159 -15 0
-159 73 0
-159 -74 0
-159 98 0
-159 -14 0
159 -1 51 43 69 21 15 -73 74 -98 14 0
-160 22 0
-160 -90 0
-160 -96 0
-160 -61 0
-160 24 0
-160 -74 0
-160 -6 0
-160 75 0
-160 -37 0
-160 68 0
160 -22 90 96 61 -24 74 6 -75 37 -68 0
151 152 153 154 155 156 157 158 159 160 0
-161 9 0
-161 -79 0
-161 -58 0
-161 -87 0
-161 27 0
-161 -68 0
-161 -7 0
-161 42 0
-161 70 0
-161 17 0
161 -9 79 58 87 -27 68 7 -42 -70 -17 0
-162 -2 0
-162 -58 0
-162 -73 0
-162 84 0
-162 50 0
-162 87 0
-162 -72 0
-162 -70 0
-162 -46 0
-162 -36 0
162 2 58 73 -84 -50 -87 72 70 46 36 0
-163 -82 0
-163 -30 0
-163 65 0
-163 96 0
-163 67 0
-163 -54 0
-163 28 0
-163 -86 0
-163 66 0
-163 -91 0
163 82 30 -65 -96 -67 54 -28 86 -66 91 0
-164 -72 0
-164 -94 0
-164 12 0
-164 77 0
-164 -44 0
-164 -8 0
-164 86 0
-164 76 0
-164 -58 0
-164 -100 0
164 72 94 -12 -77 44 8 -86 -76 58 100 0
-165 3 0
-165 47 0
-165 62 0
-165 4 0
-165 99 0
-165 -21 0
-165 1 0
-165 91 0
-165 80 0
-165 11 0
165 -3 -47 -62 -4 -99 21 -1 -91 -80 -11 0
-166 27 0
-166 66 0
-166 60 0
-166 -75 0
-166 85 0
-166 37 0
-166 -88 0
-166 55 0
-166 79 0
-166 25 0
166 -27 -66 -60 75 -85 -37 88 -55 -79 -25 0
-167 -19 0
-167 54 0
-167 -18 0
-167 8 0
-167 21 0
-167 49 0
-167 95 0
-167 23 0
-167 -68 0
-167 22 0
167 19 -54 18 -8 -21 -49 -95 -23 68 -22 0
-168 -53 0
-168 -79 0
-168 -57 0
-168 29 0
-168 -39 0
-168 -12 0
-168 -71 0
-168 -85 0
-168 -23 0
-168 33 0
168 53 79 57 -29 39 12 71 85 23 -33 0
-169 14 0
-169 31 0
-169 56 0
-169 21 0
-169 73 0
-169 -15 0
-169 -36 0
-169 6 0
-169 -28 0
-169 -12 0
169 -14 -31 -56 -21 -73 15 36 -6 28 12 0
-170 -86 0
-170 73 0
-170 54 0
-170 -12 0
-170 -76 0
-170 -8 0
-170 44 0
-170 -93 0
-170 82 0
-170 -31 0
170 86 -73 -54 12 76 8 -44 93 -82 31 0
161 162 163 164 165 166 167 168 169 170 0
-171 -12 0
-171 61 0
-171 89 0
-171 25 0
-171 -87 0
-171 -75 0
-171 21 0
-171 -68 0
-171 62 0
-171 -77 0
171 12 -61 -89 -25 87 75 -21 68 -62 77 0
-172 -64 0
-172 -80 0
-172 22 0
-172 66 0
-172 55 0
-172 -82 0
-172 -47 0
-172 76 0
-172 -26 0
-172 8 0
172 64 80 -22 -66 -55 82 47 -76 26 -8 0
-173 -100 0
-173 -46 0
-173 75 0
-173 17 0
-173 -80 0
-173 -56 0
-173 -25 0
-173 40 0
-173 24 0
-173 38 0
173 100 46 -75 -17 80 56 25 -40 -24 -38 0
-174 53 0
-174 -78 0
-174 10 0
-174 24 0
-174 8 0
-174 -99 0
-174 -16 0
-174 31 0
-174 75 0
-174 -9 0
174 -53 78 -10 -24 -8 99 16 -31 -75 9 0
-175 -6 0
-175 38 0
-175 2 0
-175 24 0
-175 59 0
-175 -53 0
-175 -85 0
-175 -82 0
-175 36 0
-175 13 0
175 6 -38 -2 -24 -59 53 85 82 -36 -13 0
-176 -97 0
-176 8 0
-176 -78 0
-176 73 0
-176 -7 0
-176 -67 0
-176 48 0
-176 2 0
-176 -75 0
-176 -3 0
176 97 -8 78 -73 7 67 -48 -2 75 3 0
-177 -62 0
-177 -64 0
-177 74 0
-177 51 0
-177 -95 0
-177 -30 0
-177 -32 0
-177 86 0
-177 3 0
-177 -85 0
177 62 64 -74 -51 95 30 32 -86 -3 85 0
-178 18 0
-178 99 0
-178 -45 0
-178 61 0
-178 12 0
-178 14 0
-178 30 0
-178 -46 0
-178 27 0
-178 64 0
178 -18 -99 45 -61 -12 -14 -30 46 -27 -64 0
-179 -11 0
-179 68 0
-179 20 0
-179 18 0
-179 10 0
-179 95 0
-179 -36 0
-179 1 0
-179 -94 0
-179 -23 0
179 11 -68 -20 -18 -10 -95 36 -1 94 23 0
-180 -89 0
-180 27 0
-180 -86 0
-180 60 0
-180 -50 0
-180 93 0
-180 -61 0
-180 47 0
-180 95 0
-180 63 0
180 89 -27 86 -60 50 -93 61 -47 -95 -63 0
171 172 173 174 175 176 177 178 179 180 0
-181 23 0
-181 94 0
-181 36 0
-181 -47 0
-181 53 0
-181 85 0
-181 31 0
-181 41 0
-181 -86 0
-181 1 0
181 -23 -94 -36 47 -53 -85 -31 -41 86 -1 0
-182 -10 0
-182 73 0
-182 -90 0
-182 94 0
-182 78 0
-182 -72 0
-182 -97 0
-182 53 0
-182 33 0
-182 85 0
182 10 -73 90 -94 -78 72 97 -53 -33 -85 0
-183 53 0
-183 -69 0
-183 40 0
-183 32 0
-183 -4 0
-183 79 0
-183 -75 0
-183 -93 0
-183 31 0
-183 19 0
183 -53 69 -40 -32 4 -79 75 93 -31 -19 0
-184 -1 0
-184 85 0
-184 -3 0
-184 -56 0
-184 -82 0
-184 -36 0
-184 -75 0
-184 91 0
-184 -52 0
-184 81 0
184 1 -85 3 56 82 36 75 -91 52 -81 0
-185 56 0
-185 63 0
-185 43 0
-185 -39 0
-185 -83 0
-185 98 0
-185 -51 0
-185 33 0
-185 46 0
-185 90 0
185 -56 -63 -43 39 83 -98 51 -33 -46 -90 0
-186 37 0
-186 -75 0
-186 11 0
-186 45 0
-186 -54 0
-186 -31 0
-186 94 0
-186 -81 0
-186 -46 0
-186 -40 0
186 -37 75 -11 -45 54 31 -94 81 46 40 0
-187 11 0
-187 72 0
-187 -77 0
-187 1 0
-187 -69 0
-187 37 0
-187 -93 0
-187 74 0
-187 80 0
-187 -60 0
187 -11 -72 77 -1 69 -37 93 -74 -80 60 0
-188 -18 0
-188 -65 0
-188 -51 0
-188 -89 0
-188 -64 0
-188 -15 0
-188 -6 0
-188 -33 0
-188 -24 0
-188 -100 0
188 18 65 51 89 64 15 6 33 24 100 0
-189 -73 0
-189 -95 0
-189 82 0
-189 -62 0
-189 50 0
-189 28 0
-189 -71 0
-189 94 0
-189 -79 0
-189 -87 0
189 73 95 -82 62 -50 -28 71 -94 79 87 0
-190 -49 0
-190 -24 0
-190 9 0
-190 -77 0
-190 -66 0
-190 -19 0
-190 57 0
-190 -29 0
-190 28 0
-190 94 0
190 49 24 -9 77 66 19 -57 29 -28 -94 0
181 182 183 184 185 186 187 188 189 190 0
-191 66 0
-191 57 0
-191 -71 0
-191 86 0
-191 2 0
-191 -97 0
-191 -34 0
-191 -10 0
-191 -5 0
-191 -96 0
191 -66 -57 71 -86 -2 97 34 10 5 96 0
-192 7 0
-192 -85 0
-192 84 0
-192 78 0
-192 -45 0
-192 38 0
-192 97 0
-192 96 0
-192 19 0
-192 -12 0
192 -7 85 -84 -78 45 -38 -97 -96 -19 12 0
-193 57 0
-193 -4 0
-193 -27 0
-193 -40 0
-193 90 0
-193 -80 0
-193 -5 0
-193 -66 0
-193 85 0
-193 -3 0
193 -57 4 27 40 -90 80 5 66 -85 3 0
-194 21 0
-194 -8 0
-194 100 0
-194 33 0
-194 -3 0
-194 70 0
-194 40 0
-194 19 0
-194 82 0
-194 -78 0
194 -21 8 -100 -33 3 -70 -40 -19 -82 78 0
-195 76 0
-195 16 0
-195 -8 0
-195 -13 0
-195 -20 0
-195 29 0
-195 -27 0
-195 -19 0
-195 90 0
-195 54 0
195 -76 -16 8 13 20 -29 27 19 -90 -54 0
-196 95 0
-196 -31 0
-196 32 0
-196 -45 0
-196 -46 0
-196 88 0
-196 -92 0
-196 -5 0
-196 -82 0
-196 -73 0
196 -95 31 -32 45 46 -88 92 5 82 73 0
-197 74 0
-197 9 0
-197 89 0
-197 -1 0
-197 92 0
-197 -45 0
-197 -91 0
-197 39 0
-197 93 0
-197 36 0
197 -74 -9 -89 1 -92 45 91 -39 -93 -36 0
-198 -74 0
-198 47 0
-198 89 0
-198 16 0
-198 13 0
-198 -79 0
-198 90 0
-198 11 0
-198 50 0
-198 38 0
198 74 -47 -89 -16 -13 79 -90 -11 -50 -38 0
-199 -18 0
-199 23 0
-199 -95 0
-199 -59 0
-199 66 0
-199 -74 0
-199 -92 0
-199 98 0
-199 -88 0
-199 22 0
199 18 -23 95 59 -66 74 92 -98 88 -22 0
-200 -59 0
-200 45 0
-200 -93 0
-200 78 0
-200 -29 0
-200 40 0
-200 -99 0
-200 3 0
-200 95 0
-200 22 0
200 59 -45 93 -78 29 -40 99 -3 -95 -22 0
191 192 193 194 195 196 197 198 199 200 0
